(set-info :source |
 Generated by Alive 0.1
 More info in N. P. Lopes, D. Menendez, S. Nagarakatte, J. Regehr.
 Provably Correct Peephole Optimizations with Alive. In PLDI'15.
|)

(set-info :status unknown)
(declare-fun mem0 () (_ BitVec 8))
(declare-fun |ana_computeKnownZeroBits(%y)| () (_ BitVec 29))
(declare-fun |ana_computeKnownZeroBits(%x)| () (_ BitVec 29))
(declare-fun %y () (_ BitVec 29))
(declare-fun %x () (_ BitVec 29))
(assert
 (let (($x927 (and (distinct mem0 mem0) true)))
 (let (($x39403 (= (bvor |ana_computeKnownZeroBits(%x)| |ana_computeKnownZeroBits(%y)|) (_ bv536870911 29))))
 (let (($x34370 (= (bvand |ana_computeKnownZeroBits(%y)| %y) (_ bv0 29))))
 (let (($x29394 (= (bvand |ana_computeKnownZeroBits(%x)| %x) (_ bv0 29))))
 (and $x29394 $x34370 $x39403 $x927))))))
(check-sat)
